5526585.22
0 20 67 56 77 49 44 66 95 0 
0 26 92 23 36 0 
0 70 61 29 40 64 86 81 83 82 45 27 22 0 
0 30 6 48 98 39 85 28 73 58 46 34 32 65 31 0 
0 10 2 7 18 4 59 100 12 24 9 42 78 69 71 0 
0 38 17 41 54 33 47 53 0 
0 21 15 87 1 96 91 97 11 50 60 37 35 0 
0 14 90 88 52 80 94 84 93 75 5 0 
0 19 13 55 57 62 76 79 51 72 3 0 
0 63 8 99 0 
0 25 16 43 68 74 89 0 
